
(set-logic ALL) 

(declare-datatype MyList ((Nil) (Cons (head Real) (tail MyList)) )) 
(declare-fun l0 () MyList) 
(declare-fun l1 () MyList) 
(declare-fun l2 () MyList) 
(declare-fun l3 () MyList) 
(declare-fun i0 () Real) 
(declare-fun i1 () Real) 
(assert (is-Cons Nil) )
(assert (= l0 Nil) )
(assert (or (= l3 l2) (is-Nil Nil)) )
(assert (= l2 l2) )
(assert (is-Nil Nil) )
(assert (or (= l3 Nil) (= l2 Nil) (= l3 Nil) (= l3 Nil)) )
(assert (not (= l1 Nil)) )
(assert (is-Nil Nil) )
(check-sat)
